CapLotSizing_PM/src/Instancias/TCHSHT/6i6p2m/NBA03.OUT
 CG ITER, OVMR, OVMRUB =           1   18017.2480469   17872.8359375
 CG ITER, OVMR, OVMRUB =           2   17105.2011719   17105.2011719
 CG ITER, OVMR, OVMRUB =           3   17105.2011719   17105.2011719
 CG ITER, OVMR, OVMRUB =           4   15224.0000000   17105.2011719
 CG ITER, OVMR, OVMRUB =           5   14747.1503906   17105.2011719
 CG ITER, OVMR, OVMRUB =           6   14691.2861328   17105.2011719
 CG ITER, OVMR, OVMRUB =           7   14688.8564453   17105.2011719
 CG ITER, OVMR, OVMRUB =           8   14671.4560547   17105.2011719
 CG ITER, OVMR, OVMRUB =           9   14660.4580078   17105.2011719
 CG ITER, OVMR, OVMRUB =          10   14657.9433594   17105.2011719
 CG ITER, OVMR, OVMRUB =          11   14659.2783203   17105.2011719
 CG ITER, OVMR, OVMRUB =          12   14664.4570312   17105.2011719
 CG ITER, OVMR, OVMRUB =          13   14664.4570312   17105.2011719
OVLB =   14664.4570312 OVLUB =   17105.2011719 TIME =       0.3200000
